8072
20551
31699
30281
21997
22764
3954
9388
10113
4247
20560
23313
25904
22369
8822
1267
3919
6635
16988
22672
22941
3091
24466
1317
16751
26166
32099
4166
2566
20149
21395
31697
32601
23457
22847
14776
28981
28215
29511
19740
32272
22076
5608
25544
29958
29344
28152
20419
8054
1595
18072
23830
21065
23307
26351
29100
21535
22848
12958
13535
12285
17361
26721
25663
5715
22911
8950
26125
31132
29706
25465
19089
9539
21726
22536
3665
4623
6602
14081
22733
11364
5339
22016
8355
18993
30979
17782
26785
11327
28646
8846
16056
20889
15316
3645
19568
30860
17640
27934
30797
